3 
4  41 
5  06 26 36 44 52 
6  00 07 14 21 28 36 46 54 
7  01 09 16 24 31 39 46 54 
8  01 09 16 24 31 39 46 54 
9  01 09 16 24 31 39 46 54 
10  01 09 16 24 31 39 46 54 
11  01 09 16 24 31 39 46 54 
12  01 09 16 24 31 39 46 54 
13  01 09 16 24 31 39 46 54 
14  01 09 16 24 31 39 46 54 
15  01 09 16 24 31 39 46 54 
16  01 09 16 24 31 39 46 54 
17  01 09 16 24 31 39 46 54 
18  01 09 16 24 31 39 46 54 
19  01 09 16 24 31 39 46 54 
20  03 18 33 48 
21  01 16 31 46 
22  01 16 31 46 
23  01 17 
0 
